c turning on binary mode checking
c parsing input formula with 259840 variables and 1039919 clauses
c finished parsing, read 2836394 bytes from proof file
c detected empty clause; start verification via backward checking
c 5564 of 1039919 clauses in core                            
c 1909 of 107482 lemmas in core using 68697 resolution steps
c 0 RAT lemmas in core; 334 redundant literals in core lemmas
s VERIFIED
c verification time: 1.360 seconds
